db/data/20615231552619728020303629241162411376.z3.out
-------------------
2500.172685544
